25° run output:
{
    "Function": "kroA750.tsp",
    "Problem dimension": [
        153,
        588,
        354,
        235,
        423,
        404,
        749,
        400,
        373,
        315,
        502,
        470,
        448,
        199,
        446,
        639,
        524,
        457,
        353,
        258,
        157,
        176,
        427,
        668,
        230,
        626,
        717,
        459,
        743,
        284,
        280,
        630,
        625,
        642,
        557,
        599,
        206,
        187,
        518,
        616,
        96,
        207,
        727,
        541,
        40,
        0,
        77,
        8,
        358,
        678,
        245,
        108,
        659,
        527,
        228,
        112,
        746,
        742,
        460,
        693,
        681,
        422,
        346,
        144,
        229,
        665,
        101,
        148,
        581,
        569,
        313,
        705,
        567,
        662,
        379,
        72,
        699,
        415,
        64,
        191,
        246,
        432,
        600,
        614,
        582,
        82,
        506,
        682,
        168,
        195,
        4,
        260,
        184,
        172,
        685,
        19,
        402,
        372,
        88,
        131,
        455,
        278,
        41,
        610,
        653,
        591,
        317,
        560,
        23,
        130,
        411,
        669,
        301,
        537,
        272,
        371,
        695,
        481,
        454,
        348,
        265,
        652,
        145,
        185,
        539,
        224,
        465,
        282,
        218,
        128,
        119,
        367,
        464,
        646,
        480,
        214,
        156,
        83,
        183,
        45,
        329,
        352,
        564,
        137,
        193,
        210,
        572,
        186,
        208,
        577,
        120,
        392,
        107,
        226,
        553,
        692,
        399,
        713,
        188,
        232,
        671,
        520,
        507,
        720,
        174,
        486,
        484,
        286,
        261,
        526,
        715,
        648,
        192,
        363,
        475,
        177,
        93,
        473,
        59,
        552,
        113,
        42,
        660,
        374,
        538,
        696,
        15,
        384,
        3,
        559,
        330,
        213,
        285,
        634,
        103,
        256,
        114,
        741,
        264,
        443,
        124,
        737,
        628,
        81,
        242,
        270,
        12,
        171,
        274,
        409,
        253,
        650,
        394,
        302,
        205,
        389,
        586,
        574,
        649,
        362,
        296,
        359,
        200,
        416,
        320,
        32,
        602,
        20,
        554,
        221,
        635,
        115,
        664,
        597,
        417,
        277,
        22,
        387,
        366,
        160,
        127,
        556,
        661,
        450,
        700,
        275,
        641,
        721,
        35,
        340,
        430,
        531,
        129,
        463,
        542,
        476,
        122,
        636,
        9,
        269,
        691,
        376,
        310,
        672,
        150,
        339,
        238,
        102,
        458,
        138,
        551,
        143,
        452,
        349,
        612,
        311,
        314,
        421,
        26,
        225,
        724,
        16,
        7,
        328,
        414,
        631,
        306,
        135,
        222,
        483,
        426,
        467,
        24,
        21,
        403,
        316,
        593,
        441,
        243,
        606,
        716,
        79,
        75,
        333,
        351,
        406,
        106,
        70,
        429,
        733,
        607,
        165,
        38,
        276,
        292,
        645,
        159,
        251,
        726,
        688,
        297,
        116,
        345,
        163,
        547,
        580,
        356,
        237,
        91,
        738,
        637,
        25,
        490,
        390,
        488,
        67,
        30,
        383,
        100,
        398,
        745,
        679,
        494,
        439,
        431,
        5,
        739,
        181,
        55,
        492,
        485,
        479,
        196,
        447,
        357,
        438,
        589,
        197,
        401,
        154,
        657,
        347,
        231,
        56,
        332,
        152,
        364,
        549,
        605,
        209,
        604,
        596,
        309,
        46,
        158,
        194,
        747,
        393,
        17,
        10,
        212,
        248,
        644,
        300,
        344,
        511,
        161,
        698,
        14,
        651,
        162,
        189,
        92,
        85,
        94,
        437,
        620,
        462,
        663,
        434,
        321,
        684,
        327,
        164,
        735,
        239,
        132,
        267,
        223,
        709,
        548,
        266,
        319,
        683,
        295,
        52,
        331,
        522,
        619,
        734,
        405,
        543,
        281,
        617,
        28,
        555,
        689,
        250,
        647,
        219,
        540,
        298,
        178,
        723,
        308,
        151,
        369,
        469,
        487,
        179,
        495,
        51,
        273,
        65,
        613,
        707,
        618,
        736,
        141,
        603,
        474,
        166,
        550,
        257,
        523,
        453,
        18,
        512,
        442,
        80,
        125,
        498,
        147,
        71,
        68,
        468,
        123,
        563,
        478,
        44,
        87,
        37,
        312,
        719,
        254,
        289,
        279,
        515,
        355,
        247,
        338,
        704,
        118,
        643,
        203,
        748,
        169,
        86,
        575,
        674,
        573,
        687,
        142,
        326,
        350,
        592,
        598,
        587,
        335,
        63,
        391,
        190,
        287,
        27,
        78,
        566,
        633,
        435,
        49,
        408,
        621,
        496,
        710,
        493,
        126,
        217,
        334,
        712,
        725,
        590,
        262,
        244,
        500,
        477,
        57,
        624,
        288,
        90,
        95,
        418,
        638,
        623,
        731,
        655,
        234,
        732,
        33,
        594,
        444,
        677,
        34,
        139,
        533,
        6,
        198,
        99,
        501,
        562,
        173,
        377,
        433,
        342,
        714,
        640,
        76,
        508,
        694,
        629,
        461,
        323,
        182,
        375,
        388,
        167,
        529,
        290,
        722,
        255,
        510,
        584,
        294,
        571,
        397,
        513,
        504,
        382,
        534,
        658,
        497,
        670,
        215,
        155,
        318,
        413,
        503,
        110,
        84,
        675,
        268,
        680,
        544,
        69,
        536,
        54,
        718,
        686,
        386,
        576,
        449,
        305,
        627,
        299,
        89,
        545,
        579,
        175,
        180,
        134,
        66,
        360,
        136,
        336,
        711,
        263,
        622,
        109,
        601,
        412,
        410,
        343,
        324,
        227,
        525,
        609,
        744,
        396,
        271,
        236,
        39,
        703,
        489,
        471,
        466,
        514,
        61,
        565,
        428,
        558,
        341,
        204,
        568,
        43,
        445,
        62,
        121,
        361,
        519,
        424,
        708,
        104,
        499,
        385,
        74,
        140,
        656,
        201,
        283,
        666,
        322,
        505,
        220,
        252,
        249,
        36,
        48,
        303,
        73,
        380,
        241,
        530,
        528,
        676,
        97,
        365,
        1,
        395,
        240,
        117,
        673,
        608,
        53,
        595,
        532,
        632,
        419,
        585,
        561,
        216,
        654,
        111,
        517,
        381,
        472,
        146,
        509,
        378,
        730,
        368,
        233,
        304,
        105,
        516,
        697,
        31,
        11,
        667,
        337,
        701,
        728,
        436,
        29,
        211,
        729,
        293,
        702,
        535,
        149,
        58,
        47,
        690,
        259,
        60,
        570,
        611,
        170,
        133,
        202,
        425,
        13,
        482,
        407,
        98,
        50,
        583,
        615,
        578,
        370,
        291,
        740,
        491,
        521,
        420,
        451,
        325,
        456,
        440,
        307,
        546,
        706,
        2
    ],
    "Global Optimum": 0,
    "Algorithm": "Genetic algorithm",
    "Parameters": {
        "population": 30,
        "offspring": 30,
        "mutation probability": 0.0013333333333333333,
        "crossover probability": 0.9
    },
    "Fitness": 867801,
    "Solution": [
        153,
        588,
        354,
        235,
        423,
        404,
        749,
        400,
        373,
        315,
        502,
        470,
        448,
        199,
        446,
        639,
        524,
        457,
        353,
        258,
        157,
        176,
        427,
        668,
        230,
        626,
        717,
        459,
        743,
        284,
        280,
        630,
        625,
        642,
        557,
        599,
        206,
        187,
        518,
        616,
        96,
        207,
        727,
        541,
        40,
        0,
        77,
        8,
        358,
        678,
        245,
        108,
        659,
        527,
        228,
        112,
        746,
        742,
        460,
        693,
        681,
        422,
        346,
        144,
        229,
        665,
        101,
        148,
        581,
        569,
        313,
        705,
        567,
        662,
        379,
        72,
        699,
        415,
        64,
        191,
        246,
        432,
        600,
        614,
        582,
        82,
        506,
        682,
        168,
        195,
        4,
        260,
        184,
        172,
        685,
        19,
        402,
        372,
        88,
        131,
        455,
        278,
        41,
        610,
        653,
        591,
        317,
        560,
        23,
        130,
        411,
        669,
        301,
        537,
        272,
        371,
        695,
        481,
        454,
        348,
        265,
        652,
        145,
        185,
        539,
        224,
        465,
        282,
        218,
        128,
        119,
        367,
        464,
        646,
        480,
        214,
        156,
        83,
        183,
        45,
        329,
        352,
        564,
        137,
        193,
        210,
        572,
        186,
        208,
        577,
        120,
        392,
        107,
        226,
        553,
        692,
        399,
        713,
        188,
        232,
        671,
        520,
        507,
        720,
        174,
        486,
        484,
        286,
        261,
        526,
        715,
        648,
        192,
        363,
        475,
        177,
        93,
        473,
        59,
        552,
        113,
        42,
        660,
        374,
        538,
        696,
        15,
        384,
        3,
        559,
        330,
        213,
        285,
        634,
        103,
        256,
        114,
        741,
        264,
        443,
        124,
        737,
        628,
        81,
        242,
        270,
        12,
        171,
        274,
        409,
        253,
        650,
        394,
        302,
        205,
        389,
        586,
        574,
        649,
        362,
        296,
        359,
        200,
        416,
        320,
        32,
        602,
        20,
        554,
        221,
        635,
        115,
        664,
        597,
        417,
        277,
        22,
        387,
        366,
        160,
        127,
        556,
        661,
        450,
        700,
        275,
        641,
        721,
        35,
        340,
        430,
        531,
        129,
        463,
        542,
        476,
        122,
        636,
        9,
        269,
        691,
        376,
        310,
        672,
        150,
        339,
        238,
        102,
        458,
        138,
        551,
        143,
        452,
        349,
        612,
        311,
        314,
        421,
        26,
        225,
        724,
        16,
        7,
        328,
        414,
        631,
        306,
        135,
        222,
        483,
        426,
        467,
        24,
        21,
        403,
        316,
        593,
        441,
        243,
        606,
        716,
        79,
        75,
        333,
        351,
        406,
        106,
        70,
        429,
        733,
        607,
        165,
        38,
        276,
        292,
        645,
        159,
        251,
        726,
        688,
        297,
        116,
        345,
        163,
        547,
        580,
        356,
        237,
        91,
        738,
        637,
        25,
        490,
        390,
        488,
        67,
        30,
        383,
        100,
        398,
        745,
        679,
        494,
        439,
        431,
        5,
        739,
        181,
        55,
        492,
        485,
        479,
        196,
        447,
        357,
        438,
        589,
        197,
        401,
        154,
        657,
        347,
        231,
        56,
        332,
        152,
        364,
        549,
        605,
        209,
        604,
        596,
        309,
        46,
        158,
        194,
        747,
        393,
        17,
        10,
        212,
        248,
        644,
        300,
        344,
        511,
        161,
        698,
        14,
        651,
        162,
        189,
        92,
        85,
        94,
        437,
        620,
        462,
        663,
        434,
        321,
        684,
        327,
        164,
        735,
        239,
        132,
        267,
        223,
        709,
        548,
        266,
        319,
        683,
        295,
        52,
        331,
        522,
        619,
        734,
        405,
        543,
        281,
        617,
        28,
        555,
        689,
        250,
        647,
        219,
        540,
        298,
        178,
        723,
        308,
        151,
        369,
        469,
        487,
        179,
        495,
        51,
        273,
        65,
        613,
        707,
        618,
        736,
        141,
        603,
        474,
        166,
        550,
        257,
        523,
        453,
        18,
        512,
        442,
        80,
        125,
        498,
        147,
        71,
        68,
        468,
        123,
        563,
        478,
        44,
        87,
        37,
        312,
        719,
        254,
        289,
        279,
        515,
        355,
        247,
        338,
        704,
        118,
        643,
        203,
        748,
        169,
        86,
        575,
        674,
        573,
        687,
        142,
        326,
        350,
        592,
        598,
        587,
        335,
        63,
        391,
        190,
        287,
        27,
        78,
        566,
        633,
        435,
        49,
        408,
        621,
        496,
        710,
        493,
        126,
        217,
        334,
        712,
        725,
        590,
        262,
        244,
        500,
        477,
        57,
        624,
        288,
        90,
        95,
        418,
        638,
        623,
        731,
        655,
        234,
        732,
        33,
        594,
        444,
        677,
        34,
        139,
        533,
        6,
        198,
        99,
        501,
        562,
        173,
        377,
        433,
        342,
        714,
        640,
        76,
        508,
        694,
        629,
        461,
        323,
        182,
        375,
        388,
        167,
        529,
        290,
        722,
        255,
        510,
        584,
        294,
        571,
        397,
        513,
        504,
        382,
        534,
        658,
        497,
        670,
        215,
        155,
        318,
        413,
        503,
        110,
        84,
        675,
        268,
        680,
        544,
        69,
        536,
        54,
        718,
        686,
        386,
        576,
        449,
        305,
        627,
        299,
        89,
        545,
        579,
        175,
        180,
        134,
        66,
        360,
        136,
        336,
        711,
        263,
        622,
        109,
        601,
        412,
        410,
        343,
        324,
        227,
        525,
        609,
        744,
        396,
        271,
        236,
        39,
        703,
        489,
        471,
        466,
        514,
        61,
        565,
        428,
        558,
        341,
        204,
        568,
        43,
        445,
        62,
        121,
        361,
        519,
        424,
        708,
        104,
        499,
        385,
        74,
        140,
        656,
        201,
        283,
        666,
        322,
        505,
        220,
        252,
        249,
        36,
        48,
        303,
        73,
        380,
        241,
        530,
        528,
        676,
        97,
        365,
        1,
        395,
        240,
        117,
        673,
        608,
        53,
        595,
        532,
        632,
        419,
        585,
        561,
        216,
        654,
        111,
        517,
        381,
        472,
        146,
        509,
        378,
        730,
        368,
        233,
        304,
        105,
        516,
        697,
        31,
        11,
        667,
        337,
        701,
        728,
        436,
        29,
        211,
        729,
        293,
        702,
        535,
        149,
        58,
        47,
        690,
        259,
        60,
        570,
        611,
        170,
        133,
        202,
        425,
        13,
        482,
        407,
        98,
        50,
        583,
        615,
        578,
        370,
        291,
        740,
        491,
        521,
        420,
        451,
        325,
        456,
        440,
        307,
        546,
        706,
        2
    ],
    "Nb of functions evaluations": 400020,
    "Computational time in seconds": 3848.8480632305145,
    "Stopping criterion in evaluations": 400000
}